p tdp 48 93
1 10
35 38
6 28
6 20
32 37
25 29
3 23
8 34
7 39
35 37
11 15
7 11
9 43
4 42
10 36
9 21
34 48
33 45
19 24
16 44
3 18
11 14
5 41
8 12
2 22
12 31
9 30
17 27
5 45
4 35
26 43
21 28
3 47
25 46
12 27
2 25
23 44
5 7
10 14
13 36
33 40
21 41
29 39
21 37
31 33
24 30
23 31
18 35
25 28
39 48
34 46
32 38
17 20
12 14
1 14
8 44
4 45
1 30
25 39
18 42
9 20
7 19
20 40
7 48
28 42
35 42
46 47
20 36
17 32
21 40
5 46
5 8
8 9
17 35
13 22
22 40
10 39
2 48
30 36
14 31
12 22
7 10
22 34
31 32
37 38
27 43
26 38
35 45
24 37
15 44
3 4
13 32
9 45
